p edge 12 34
e 1 2
e 1 3
e 2 11
e 2 8
e 2 12
e 2 1
e 3 4
e 3 5
e 3 1
e 4 6
e 4 5
e 4 3
e 5 7
e 5 4
e 5 3
e 6 7
e 6 8
e 6 9
e 6 4
e 7 10
e 7 8
e 7 6
e 7 5
e 8 12
e 8 7
e 8 6
e 8 2
e 9 6
e 10 7
e 11 12
e 11 2
e 12 11
e 12 8
e 12 2
